N = 5;
H = 6;
T = 2;

avail = array3d(1..N, 1..H, 1..T, [1, 6, 3, 2, 4, 7, 3, 5, 0, 5, 8, 7, 4, 6, 4, 0, 4, 0, 6, 10, 8, 9, 5, 7, 10, 6, 7, 8, 4, 1, 0, 9, 3, 8, 5, 0, 8, 0, 10, 0, 0, 10, 10, 7, 7, 7, 7, 0, 1, 7, 3, 9, 10, 0, 1, 7, 0, 0, 3, 5]);

r = array2d(1..H, 1..T, [0, 1, 1, 2, 1, 1, 2, 2, 0, 1, 1, 1]);
